Minimize
  - 21 y_0 - 23 y_1 - 25 y_2 - 19 y_3 - 25 y_4 - 26 y_5 - 25 y_6 - 25 y_7
   - 3 y_9 + 111 x_0_1 + 24 x_0_2 + 36 x_0_5 + 29 x_0_6 + 34 x_0_7
   + 78 x_0_9 + 107 x_1_2 + 79 x_1_3 + 101 x_1_6 + 95 x_1_7 + 30 x_2_3
   + 10 x_2_4 + 15 x_2_5 + 7 x_2_6 + 100 x_2_8 + 92 x_2_9 + 24 x_3_4
   + 26 x_3_5 + 24 x_3_7 + 77 x_3_8 + 4 x_4_7 + 99 x_4_8 + 90 x_4_9
   + 7 x_5_6 + 2 x_5_7 + 93 x_5_9 + 7 x_6_7 + 101 x_6_8 + 100 x_7_8
   + 90 x_7_9 + 13 x_8_9 + 13 x_8_9 + 13 x_8_9 + 13 x_8_9 + 13 x_8_9
   + 13 x_8_9 + 13 x_8_9 + 13 x_8_9 + 13 x_8_9 + 13 x_8_9 + 13 x_8_9
   + 13 x_8_9 + 13 x_8_9 + 13 x_8_9 + 13 x_8_9 + 13 x_8_9 + 13 x_8_9
   + 13 x_8_9 + 13 x_8_9 + 13 x_8_9 + 13 x_8_9 + 13 x_8_9 + 13 x_8_9
   + 13 x_8_9 + 13 x_8_9 + 13 x_8_9 + 13 x_8_9 + 13 x_8_9 + 13 x_8_9
   + 13 x_8_9 + 13 x_8_9 + 13 x_8_9 + 13 x_8_9 + 13 x_8_9 + 13 x_8_9
   + 13 x_8_9 + 13 x_8_9 + 13 x_8_9 + 13 x_8_9 + 13 x_8_9 + 13 x_8_9
   + 13 x_8_9 + 13 x_8_9 + 13 x_8_9 + 13 x_8_9 + 13 x_8_9 + 13 x_8_9
   + 13 x_8_9 + 13 x_8_9 + 13 x_8_9 + 13 x_8_9 + 13 x_8_9 + 13 x_8_9
   + 13 x_8_9 + 13 x_8_9 + 13 x_8_9 + 13 x_8_9 + 13 x_8_9 + 13 x_8_9
   + 13 x_8_9 + 13 x_8_9 + 13 x_8_9 + 13 x_8_9 + 13 x_8_9 + 13 x_8_9
   + 13 x_8_9 + 13 x_8_9 + 13 x_8_9 + 13 x_8_9 + 13 x_8_9 + 13 x_8_9
   + 13 x_8_9 + 13 x_8_9 + 13 x_8_9 + 13 x_8_9 + 13 x_8_9 + 13 x_8_9
   + 13 x_8_9 + 13 x_8_9 + 13 x_8_9 + 13 x_8_9 + 13 x_8_9 + 13 x_8_9
   + 13 x_8_9 + 13 x_8_9 + 13 x_8_9 + 13 x_8_9 + 13 x_8_9 + 13 x_8_9
   + 13 x_8_9 + 13 x_8_9 + 13 x_8_9 + 13 x_8_9 + 13 x_8_9 + 13 x_8_9
   + 13 x_8_9 + 13 x_8_9 + 13 x_8_9 + 13 x_8_9 + 13 x_8_9 + 13 x_8_9
   + 13 x_8_9 + 13 x_8_9 + 13 x_8_9 + 13 x_8_9 + 13 x_8_9 + 13 x_8_9
   + 13 x_8_9 + 13 x_8_9 + 13 x_8_9 + 13 x_8_9 + 13 x_8_9 + 13 x_8_9
   + 13 x_8_9 + 13 x_8_9 + 13 x_8_9 + 13 x_8_9 + 13 x_8_9 + 13 x_8_9
   + 13 x_8_9 + 13 x_8_9 + 13 x_8_9 + 13 x_8_9 + 13 x_8_9 + 13 x_8_9
   + 13 x_8_9 + 13 x_8_9 + 13 x_8_9 + 13 x_8_9 + 13 x_8_9 + 13 x_8_9
   + 13 x_8_9 + 13 x_8_9 + 13 x_8_9 + 13 x_8_9 + 13 x_8_9 + 13 x_8_9
   + 13 x_8_9 + 13 x_8_9 + 13 x_8_9 + 13 x_8_9 + 13 x_8_9 + 13 x_8_9
   + 13 x_8_9 + 13 x_8_9 + 13 x_8_9 + 13 x_8_9 + 13 x_8_9 + 13 x_8_9
   + 13 x_8_9 + 13 x_8_9 + 13 x_8_9 + 13 x_8_9 + 13 x_8_9 + 13 x_8_9
   + 13 x_8_9 + 13 x_8_9 + 13 x_8_9 + 13 x_8_9 + 13 x_8_9 + 13 x_8_9
   + 13 x_8_9 + 13 x_8_9 + 13 x_8_9 + 13 x_8_9 + 13 x_8_9 + 13 x_8_9
   + 13 x_8_9 + 13 x_8_9 + 13 x_8_9 + 13 x_8_9 + 13 x_8_9 + 13 x_8_9
   + 13 x_8_9 + 13 x_8_9 + 13 x_8_9 + 13 x_8_9 + 13 x_8_9 + 13 x_8_9
   + 13 x_8_9 + 13 x_8_9 + 13 x_8_9 + 13 x_8_9 + 13 x_8_9 + 13 x_8_9
   + 13 x_8_9 + 13 x_8_9 + 13 x_8_9 + 13 x_8_9 + 13 x_8_9 + 13 x_8_9
   + 13 x_8_9 + 13 x_8_9 + 13 x_8_9 + 13 x_8_9 + 13 x_8_9 + 13 x_8_9
   + 13 x_8_9 + 13 x_8_9 + 13 x_8_9 + 13 x_8_9 + 13 x_8_9 + 13 x_8_9
   + 13 x_8_9 + 13 x_8_9 + 13 x_8_9 + 13 x_8_9 + 13 x_8_9 + 13 x_8_9
   + 13 x_8_9 + 13 x_8_9 + 13 x_8_9 + 13 x_8_9 + 13 x_8_9 + 13 x_8_9
   + 13 x_8_9 + 13 x_8_9 + 13 x_8_9 + 13 x_8_9 + 13 x_8_9 + 13 x_8_9
   + 13 x_8_9 + 13 x_8_9 + 13 x_8_9 + 13 x_8_9 + 13 x_8_9 + 13 x_8_9
   + 13 x_8_9 + 13 x_8_9 + 13 x_8_9 + 13 x_8_9 + 13 x_8_9 + 13 x_8_9
   + 13 x_8_9 + 13 x_8_9 + 13 x_8_9 + 13 x_8_9 + 13 x_8_9 + 13 x_8_9
   + 13 x_8_9 + 13 x_8_9 + 13 x_8_9 + 13 x_8_9 + 13 x_8_9 + 13 x_8_9
   + 13 x_8_9 + 13 x_8_9 + 13 x_8_9 + 13 x_8_9 + 13 x_8_9 + 13 x_8_9
   + 13 x_8_9 + 13 x_8_9 + 13 x_8_9 + 13 x_8_9 + 13 x_8_9 + 13 x_8_9
   + 13 x_8_9 + 13 x_8_9 + 13 x_8_9 + 13 x_8_9 + 13 x_8_9 + 13 x_8_9
   + 13 x_8_9 + 13 x_8_9 + 13 x_8_9 + 13 x_8_9 + 13 x_8_9 + 13 x_8_9
   + 13 x_8_9 + 13 x_8_9 + 13 x_8_9 + 13 x_8_9 + 13 x_8_9 + 13 x_8_9
   + 13 x_8_9 + 13 x_8_9 + 13 x_8_9 + 13 x_8_9 + 13 x_8_9 + 13 x_8_9
   + 13 x_8_9 + 13 x_8_9 + 13 x_8_9 + 13 x_8_9 + 192 Constant
Subject To
 c_0: y_1 = 1
 c_1_0: y_0 >= 1
 c_1_1: y_1 >= 1
 c_1_2: y_2 + y_4 + y_6 >= 1
 c_1_3: y_3 >= 1
 c_1_4: y_2 + y_4 + y_5 + y_6 + y_7 >= 1
 c_1_5: y_4 + y_5 + y_6 + y_7 >= 1
 c_1_6: y_2 + y_4 + y_5 + y_6 + y_7 >= 1
 c_1_7: y_4 + y_5 + y_6 + y_7 >= 1
 c_1_8: y_8 >= 1
 c_1_9: y_9 >= 1
 c_2_0: - 2 y_0 + x_0_1 + x_0_2 + x_0_5 + x_0_6 + x_0_7 + x_0_9 = 0
 c_2_1: - 2 y_1 + x_0_1 + x_1_2 + x_1_3 + x_1_6 + x_1_7 = 0
 c_2_2: - 2 y_2 + x_0_2 + x_1_2 + x_2_3 + x_2_4 + x_2_5 + x_2_6 + x_2_8
   + x_2_9 = 0
 c_2_3: - 2 y_3 + x_1_3 + x_2_3 + x_3_4 + x_3_5 + x_3_7 + x_3_8 = 0
 c_2_4: - 2 y_4 + x_2_4 + x_3_4 + x_4_7 + x_4_8 + x_4_9 = 0
 c_2_5: - 2 y_5 + x_0_5 + x_2_5 + x_3_5 + x_5_6 + x_5_7 + x_5_9 = 0
 c_2_6: - 2 y_6 + x_0_6 + x_1_6 + x_2_6 + x_5_6 + x_6_7 + x_6_8 = 0
 c_2_7: - 2 y_7 + x_0_7 + x_1_7 + x_3_7 + x_4_7 + x_5_7 + x_6_7 + x_7_8
   + x_7_9 = 0
 c_2_8: - 2 y_8 + x_2_8 + x_3_8 + x_4_8 + x_6_8 + x_7_8 + 285 x_8_9 = 0
 c_2_9: - 2 y_9 + x_0_9 + x_2_9 + x_4_9 + x_5_9 + x_7_9 + 285 x_8_9 = 0
Bounds
 Constant = 1
Binaries
 y_0 y_1 y_2 y_3 y_4 y_5 y_6 y_7 y_8 y_9 x_0_1 x_0_2 x_0_5 x_0_6 x_0_7
 x_0_9 x_1_2 x_1_3 x_1_6 x_1_7 x_2_3 x_2_4 x_2_5 x_2_6 x_2_8 x_2_9 x_3_4
 x_3_5 x_3_7 x_3_8 x_4_7 x_4_8 x_4_9 x_5_6 x_5_7 x_5_9 x_6_7 x_6_8 x_7_8
 x_7_9 x_8_9 x_8_9 x_8_9 x_8_9 x_8_9 x_8_9 x_8_9 x_8_9 x_8_9 x_8_9 x_8_9
 x_8_9 x_8_9 x_8_9 x_8_9 x_8_9 x_8_9 x_8_9 x_8_9 x_8_9 x_8_9 x_8_9 x_8_9
 x_8_9 x_8_9 x_8_9 x_8_9 x_8_9 x_8_9 x_8_9 x_8_9 x_8_9 x_8_9 x_8_9 x_8_9
 x_8_9 x_8_9 x_8_9 x_8_9 x_8_9 x_8_9 x_8_9 x_8_9 x_8_9 x_8_9 x_8_9 x_8_9
 x_8_9 x_8_9 x_8_9 x_8_9 x_8_9 x_8_9 x_8_9 x_8_9 x_8_9 x_8_9 x_8_9 x_8_9
 x_8_9 x_8_9 x_8_9 x_8_9 x_8_9 x_8_9 x_8_9 x_8_9 x_8_9 x_8_9 x_8_9 x_8_9
 x_8_9 x_8_9 x_8_9 x_8_9 x_8_9 x_8_9 x_8_9 x_8_9 x_8_9 x_8_9 x_8_9 x_8_9
 x_8_9 x_8_9 x_8_9 x_8_9 x_8_9 x_8_9 x_8_9 x_8_9 x_8_9 x_8_9 x_8_9 x_8_9
 x_8_9 x_8_9 x_8_9 x_8_9 x_8_9 x_8_9 x_8_9 x_8_9 x_8_9 x_8_9 x_8_9 x_8_9
 x_8_9 x_8_9 x_8_9 x_8_9 x_8_9 x_8_9 x_8_9 x_8_9 x_8_9 x_8_9 x_8_9 x_8_9
 x_8_9 x_8_9 x_8_9 x_8_9 x_8_9 x_8_9 x_8_9 x_8_9 x_8_9 x_8_9 x_8_9 x_8_9
 x_8_9 x_8_9 x_8_9 x_8_9 x_8_9 x_8_9 x_8_9 x_8_9 x_8_9 x_8_9 x_8_9 x_8_9
 x_8_9 x_8_9 x_8_9 x_8_9 x_8_9 x_8_9 x_8_9 x_8_9 x_8_9 x_8_9 x_8_9 x_8_9
 x_8_9 x_8_9 x_8_9 x_8_9 x_8_9 x_8_9 x_8_9 x_8_9 x_8_9 x_8_9 x_8_9 x_8_9
 x_8_9 x_8_9 x_8_9 x_8_9 x_8_9 x_8_9 x_8_9 x_8_9 x_8_9 x_8_9 x_8_9 x_8_9
 x_8_9 x_8_9 x_8_9 x_8_9 x_8_9 x_8_9 x_8_9 x_8_9 x_8_9 x_8_9 x_8_9 x_8_9
 x_8_9 x_8_9 x_8_9 x_8_9 x_8_9 x_8_9 x_8_9 x_8_9 x_8_9 x_8_9 x_8_9 x_8_9
 x_8_9 x_8_9 x_8_9 x_8_9 x_8_9 x_8_9 x_8_9 x_8_9 x_8_9 x_8_9 x_8_9 x_8_9
 x_8_9 x_8_9 x_8_9 x_8_9 x_8_9 x_8_9 x_8_9 x_8_9 x_8_9 x_8_9 x_8_9 x_8_9
 x_8_9 x_8_9 x_8_9 x_8_9 x_8_9 x_8_9 x_8_9 x_8_9 x_8_9 x_8_9 x_8_9 x_8_9
 x_8_9 x_8_9 x_8_9 x_8_9 x_8_9 x_8_9 x_8_9 x_8_9 x_8_9 x_8_9 x_8_9 x_8_9
 x_8_9 x_8_9 x_8_9 x_8_9 x_8_9 x_8_9 x_8_9 x_8_9 x_8_9 x_8_9 x_8_9 x_8_9
 x_8_9 x_8_9 x_8_9 x_8_9 x_8_9 x_8_9 x_8_9 x_8_9 x_8_9 x_8_9 x_8_9 x_8_9
 x_8_9 x_8_9 x_8_9 x_8_9 x_8_9 x_8_9 x_8_9 x_8_9 x_8_9 x_8_9
End
